100
128
39
48
8
19
23
33
48
22
60
6
17
39
46
50
6
2
23
55
37
10
26
48
53
39
2
33
19
14
30
58
40
22
28
46
30
23
21
14
6
5
33
16
40
15
63
20
56
28
44
44
20
4
54
20
52
38
7
31
29
23
34
17
61
16
54
56
18
39
1
27
31
38
40
50
34
23
43
24
41
26
31
29
64
24
45
44
39
37
64
63
28
32
48
48
64
30
34
29
63
36